NAME: random-98-2920
TYPE: TSP
COMMENT: size=98 seed=2920
DIMENSION: 198
EDGE_WEIGHT_TYPE: EUC_2D
NODE_COORD_SECTION
+0 440 632
-0 440 632
+1 515 807
-1 841 406
+2 159 617
-2 807 948
+3 18 940
-3 108 498
+4 367 446
-4 807 875
+5 67 245
-5 87 188
+6 110 274
-6 684 637
+7 262 791
-7 514 345
+8 438 354
-8 797 534
+9 671 504
-9 909 618
+10 153 997
-10 390 367
+11 606 236
-11 692 519
+12 468 162
-12 934 842
+13 342 586
-13 857 358
+14 340 533
-14 462 888
+15 513 689
-15 51 723
+16 560 786
-16 121 552
+17 511 255
-17 246 233
+18 777 764
-18 538 548
+19 651 658
-19 719 24
+20 1 678
-20 918 450
+21 495 214
-21 197 334
+22 974 842
-22 0 742
+23 72 234
-23 118 630
+24 379 361
-24 418 316
+25 424 438
-25 134 320
+26 184 517
-26 919 128
+27 160 295
-27 797 825
+28 907 800
-28 72 834
+29 138 293
-29 918 180
+30 745 193
-30 304 137
+31 934 976
-31 474 700
+32 904 271
-32 910 912
+33 54 957
-33 118 916
+34 427 830
-34 362 477
+35 19 37
-35 879 936
+36 183 929
-36 942 777
+37 8 898
-37 202 678
+38 304 279
-38 676 621
+39 137 253
-39 295 352
+40 379 543
-40 968 729
+41 906 576
-41 885 622
+42 118 174
-42 119 338
+43 917 929
-43 551 98
+44 514 362
-44 118 377
+45 260 600
-45 26 40
+46 646 884
-46 672 62
+47 850 489
-47 208 941
+48 9 411
-48 71 477
+49 921 111
-49 226 864
+50 363 50
-50 906 778
+51 845 732
-51 577 566
+52 86 664
-52 212 567
+53 252 90
-53 954 537
+54 674 79
-54 365 415
+55 411 356
-55 656 990
+56 939 611
-56 77 343
+57 966 548
-57 624 294
+58 44 598
-58 795 344
+59 477 406
-59 673 686
+60 869 499
-60 445 835
+61 258 641
-61 621 504
+62 953 567
-62 833 666
+63 434 659
-63 563 387
+64 936 931
-64 967 906
+65 190 907
-65 708 614
+66 870 974
-66 952 119
+67 348 55
-67 980 398
+68 714 978
-68 293 877
+69 764 344
-69 249 519
+70 718 689
-70 360 703
+71 16 249
-71 654 986
+72 922 228
-72 834 60
+73 812 110
-73 986 928
+74 80 349
-74 896 880
+75 409 974
-75 715 417
+76 892 818
-76 86 490
+77 899 886
-77 378 568
+78 241 668
-78 346 76
+79 641 736
-79 961 263
+80 502 665
-80 781 186
+81 835 719
-81 531 341
+82 256 34
-82 395 753
+83 731 992
-83 677 596
+84 375 684
-84 687 813
+85 833 422
-85 100 151
+86 152 534
-86 785 905
+87 314 872
-87 990 523
+88 629 304
-88 320 527
+89 908 259
-89 773 478
+90 573 19
-90 40 141
+91 162 680
-91 874 176
+92 560 552
-92 338 250
+93 65 792
-93 917 872
+94 818 322
-94 180 922
+95 95 703
-95 288 353
+96 147 756
-96 391 9
+97 28 261
-97 318 900
+98 482 274
-98 571 369
PRECEDENCE_SECTION
+0 -0
+1 -1
+2 -2
+3 -3
+4 -4
+5 -5
+6 -6
+7 -7
+8 -8
+9 -9
+10 -10
+11 -11
+12 -12
+13 -13
+14 -14
+15 -15
+16 -16
+17 -17
+18 -18
+19 -19
+20 -20
+21 -21
+22 -22
+23 -23
+24 -24
+25 -25
+26 -26
+27 -27
+28 -28
+29 -29
+30 -30
+31 -31
+32 -32
+33 -33
+34 -34
+35 -35
+36 -36
+37 -37
+38 -38
+39 -39
+40 -40
+41 -41
+42 -42
+43 -43
+44 -44
+45 -45
+46 -46
+47 -47
+48 -48
+49 -49
+50 -50
+51 -51
+52 -52
+53 -53
+54 -54
+55 -55
+56 -56
+57 -57
+58 -58
+59 -59
+60 -60
+61 -61
+62 -62
+63 -63
+64 -64
+65 -65
+66 -66
+67 -67
+68 -68
+69 -69
+70 -70
+71 -71
+72 -72
+73 -73
+74 -74
+75 -75
+76 -76
+77 -77
+78 -78
+79 -79
+80 -80
+81 -81
+82 -82
+83 -83
+84 -84
+85 -85
+86 -86
+87 -87
+88 -88
+89 -89
+90 -90
+91 -91
+92 -92
+93 -93
+94 -94
+95 -95
+96 -96
+97 -97
+98 -98
EOF
